Route #1: 38 15 61 46 51 3 21 41 11 60 33 59 62 57 22 53 45
Route #2: 52 32 27 35 47 7 48 65
Route #3: 26 25 14 34 9 20 56 6
Route #4: 24 29 13 12 58 55 2 30 54 17 39 42 5 4 31 37 36 23 28 43 49 64 8 40 18
Route #5: 
Route #6: 1
Route #7: 63 19
Route #8: 50 44 10 16
Route #9: 
cost 1705.3539299819436
